set VV := 0 1 2 3 4 5 6 7 8 9 10 11 12 13 14 15 16 17 18 19 ;
set VS := 0 1 2 3 4 5 6 7 8 9 10 11 12 13 14 15 16 17 18 19 20 21 22 23 24 25 26 27 28 29 30 31 32 33 34 35 36 37 38 39 40 41 42 43 ;
param cv := 
0 20
1 24
2 25
3 16
4 25
5 18
6 23
7 19
8 22
9 17
10 18
11 24
12 11
13 12
14 11
15 11
16 23
17 22
18 13
19 25
;
param cs := 
0 21
1 34
2 39
3 36
4 26
5 24
6 23
7 22
8 32
9 30
10 29
11 23
12 30
13 26
14 32
15 40
16 26
17 35
18 25
19 36
20 39
21 40
22 39
23 20
24 39
25 31
26 31
27 22
28 39
29 24
30 25
31 30
32 39
33 39
34 33
35 28
36 25
37 36
38 22
39 24
40 34
41 32
42 39
43 24
;
param bv:	 0 1 2 3 4 5 6 7 8 9 10 11 12 13 14 15 16 17 18 19 := 
		0 0 0 0 0 0 0 0 0 13 0 0 0 0 0 0 0 0 0 0 0 
		1 0 0 0 0 0 0 0 10 0 0 0 0 17 0 0 0 0 0 0 0 
		2 0 0 0 0 0 0 13 0 0 0 0 0 0 0 0 0 0 0 0 0 
		3 0 0 0 0 0 0 0 19 0 0 0 0 0 0 25 0 0 0 0 0 
		4 0 0 0 0 0 0 0 0 14 0 0 0 0 10 0 0 0 0 0 0 
		5 0 0 0 0 0 0 0 0 0 0 13 0 0 0 0 0 0 19 17 0 
		6 0 0 0 0 0 0 0 0 0 23 0 0 13 0 0 0 0 0 0 0 
		7 0 0 0 0 0 0 0 0 0 0 0 0 0 0 0 0 22 0 0 20 
		8 0 0 0 0 0 0 0 0 0 0 11 0 0 0 0 0 0 0 0 0 
		9 0 0 0 0 0 0 0 0 0 0 0 0 0 0 0 0 0 0 0 16 
		10 0 0 0 0 0 0 0 0 0 0 0 0 0 0 0 0 0 14 0 0 
		11 0 0 0 0 0 0 0 0 0 0 0 0 0 0 11 0 0 0 0 0 
		12 0 0 0 0 0 0 0 0 0 0 0 0 0 0 0 0 0 0 0 0 
		13 0 0 0 0 0 0 0 0 0 0 0 0 0 0 0 0 0 21 0 0 
		14 0 0 0 0 0 0 0 0 0 0 0 0 0 0 0 11 0 0 0 0 
		15 0 0 0 0 0 0 0 0 0 0 0 0 0 0 0 0 15 0 0 0 
		16 0 0 0 0 0 0 0 0 0 0 0 0 0 0 0 0 0 0 0 0 
		17 0 0 0 0 0 0 0 0 0 0 0 0 0 0 0 0 0 0 0 0 
		18 0 0 0 0 0 0 0 0 0 0 0 0 0 0 0 0 0 0 0 11 
		19 0 0 0 0 0 0 0 0 0 0 0 0 0 0 0 0 0 0 0 0 
;
param bs:	 0 1 2 3 4 5 6 7 8 9 10 11 12 13 14 15 16 17 18 19 20 21 22 23 24 25 26 27 28 29 30 31 32 33 34 35 36 37 38 39 40 41 42 43 := 
		0 0 0 39 0 0 0 0 0 0 0 0 0 0 0 0 0 0 0 0 0 0 0 0 0 0 0 0 0 0 0 0 0 0 0 0 0 0 0 31 0 0 0 0 0 
		1 0 0 0 0 0 0 0 0 0 0 0 0 0 0 0 0 0 22 36 0 0 0 0 0 0 0 0 0 0 0 0 29 0 0 0 0 0 0 0 0 0 0 0 0 
		2 39 0 0 0 0 0 0 0 0 0 0 0 0 0 0 0 0 31 0 0 0 0 0 0 0 0 0 0 0 0 0 0 0 0 0 0 0 0 0 0 0 0 0 0 
		3 0 0 0 0 0 40 39 0 0 0 0 39 0 0 0 0 0 0 33 0 0 34 0 36 35 0 0 0 22 0 0 0 0 0 0 34 0 0 23 0 39 0 0 0 
		4 0 0 0 0 0 0 0 0 0 0 0 0 0 0 0 0 0 0 0 0 0 0 0 0 0 0 0 0 0 0 21 0 0 0 0 0 0 0 0 0 40 0 0 0 
		5 0 0 0 40 0 0 24 0 0 0 0 0 0 0 0 0 0 21 0 0 37 0 0 0 0 30 0 0 0 0 0 0 35 0 37 0 22 0 0 0 0 0 0 0 
		6 0 0 0 39 0 24 0 0 0 0 29 0 0 0 0 0 0 0 0 0 0 0 0 0 0 0 38 0 0 31 21 0 0 0 0 0 0 39 29 39 27 0 0 0 
		7 0 0 0 0 0 0 0 0 0 0 0 0 0 0 0 0 0 0 0 29 0 0 0 0 0 0 0 0 0 0 0 0 0 0 0 0 0 0 0 0 0 0 0 0 
		8 0 0 0 0 0 0 0 0 0 0 0 0 0 0 0 0 0 35 0 0 0 0 0 0 0 30 0 0 0 0 0 35 0 0 0 0 0 0 0 0 0 0 0 0 
		9 0 0 0 0 0 0 0 0 0 0 0 0 0 0 29 0 0 0 0 0 0 28 0 0 0 0 0 0 30 0 0 0 0 30 31 0 0 0 0 0 0 0 0 0 
		10 0 0 0 0 0 0 29 0 0 0 0 0 0 0 0 0 0 0 0 0 0 0 0 0 39 0 0 0 0 0 0 0 0 0 0 0 0 0 0 0 0 0 27 0 
		11 0 0 0 39 0 0 0 0 0 0 0 0 0 0 0 0 0 0 30 0 0 0 0 40 0 0 34 0 0 0 0 29 0 0 0 0 0 0 0 31 29 0 0 0 
		12 0 0 0 0 0 0 0 0 0 0 0 0 0 0 0 0 0 0 0 40 0 0 0 0 0 0 0 0 0 0 0 0 0 0 0 0 27 0 0 0 28 0 0 0 
		13 0 0 0 0 0 0 0 0 0 0 0 0 0 0 0 20 0 0 0 0 0 0 22 0 30 0 36 0 32 0 0 0 0 29 0 0 0 0 0 0 34 0 28 0 
		14 0 0 0 0 0 0 0 0 0 29 0 0 0 0 0 0 0 0 0 0 0 0 0 0 0 0 0 0 24 0 36 0 0 0 37 0 0 0 0 0 25 0 0 0 
		15 0 0 0 0 0 0 0 0 0 0 0 0 0 20 0 0 0 0 0 0 0 0 0 32 0 0 34 0 0 22 0 0 0 20 0 0 0 0 0 0 0 0 0 0 
		16 0 0 0 0 0 0 0 0 0 0 0 0 0 0 0 0 0 0 26 0 0 0 0 32 0 0 0 0 0 30 0 0 0 0 0 0 0 36 0 0 0 0 0 0 
		17 0 22 31 0 0 21 0 0 35 0 0 0 0 0 0 0 0 0 0 0 0 0 0 0 0 0 0 0 28 0 0 0 0 0 36 0 0 0 0 0 0 0 21 0 
		18 0 36 0 33 0 0 0 0 0 0 0 30 0 0 0 0 26 0 0 0 0 0 0 0 0 0 0 0 0 0 0 0 0 0 0 0 0 0 0 0 0 0 0 0 
		19 0 0 0 0 0 0 0 29 0 0 0 0 40 0 0 0 0 0 0 0 0 0 0 0 0 0 0 0 0 0 0 0 0 0 0 0 0 0 0 0 0 0 0 0 
		20 0 0 0 0 0 37 0 0 0 0 0 0 0 0 0 0 0 0 0 0 0 0 0 26 0 0 0 0 0 0 0 0 25 0 0 0 0 0 0 25 25 0 0 27 
		21 0 0 0 34 0 0 0 0 0 28 0 0 0 0 0 0 0 0 0 0 0 0 29 0 0 0 0 0 28 31 0 20 0 0 0 0 0 0 0 0 0 0 25 29 
		22 0 0 0 0 0 0 0 0 0 0 0 0 0 22 0 0 0 0 0 0 0 29 0 0 0 0 0 0 0 26 0 28 0 40 0 0 0 20 0 0 0 0 34 0 
		23 0 0 0 36 0 0 0 0 0 0 0 40 0 0 0 32 32 0 0 0 26 0 0 0 0 0 0 0 0 0 0 0 0 39 0 0 0 0 0 0 28 0 0 0 
		24 0 0 0 35 0 0 0 0 0 0 39 0 0 30 0 0 0 0 0 0 0 0 0 0 0 0 0 0 0 0 0 0 0 0 35 25 0 36 0 0 0 0 0 0 
		25 0 0 0 0 0 30 0 0 30 0 0 0 0 0 0 0 0 0 0 0 0 0 0 0 0 0 0 0 40 0 0 0 0 0 0 0 0 0 0 0 0 0 0 30 
		26 0 0 0 0 0 0 38 0 0 0 0 34 0 36 0 34 0 0 0 0 0 0 0 0 0 0 0 0 0 0 0 25 36 0 26 0 0 0 0 0 35 0 0 0 
		27 0 0 0 0 0 0 0 0 0 0 0 0 0 0 0 0 0 0 0 0 0 0 0 0 0 0 0 0 31 0 0 0 0 0 0 23 0 0 0 0 0 0 34 0 
		28 0 0 0 22 0 0 0 0 0 30 0 0 0 32 24 0 0 28 0 0 0 28 0 0 0 40 0 31 0 0 0 0 39 0 0 0 0 29 0 0 0 0 0 0 
		29 0 0 0 0 0 0 31 0 0 0 0 0 0 0 0 22 30 0 0 0 0 31 26 0 0 0 0 0 0 0 0 32 0 0 0 0 0 33 0 39 0 29 0 0 
		30 0 0 0 0 21 0 21 0 0 0 0 0 0 0 36 0 0 0 0 0 0 0 0 0 0 0 0 0 0 0 0 0 0 0 0 22 0 0 0 0 0 0 0 0 
		31 0 29 0 0 0 0 0 0 35 0 0 29 0 0 0 0 0 0 0 0 0 20 28 0 0 0 25 0 0 32 0 0 0 0 0 0 0 0 0 0 0 0 37 30 
		32 0 0 0 0 0 35 0 0 0 0 0 0 0 0 0 0 0 0 0 0 25 0 0 0 0 0 36 0 39 0 0 0 0 0 37 0 0 0 0 0 0 0 0 0 
		33 0 0 0 0 0 0 0 0 0 30 0 0 0 29 0 20 0 0 0 0 0 0 40 39 0 0 0 0 0 0 0 0 0 0 0 0 0 0 0 0 0 0 0 0 
		34 0 0 0 0 0 37 0 0 0 31 0 0 0 0 37 0 0 36 0 0 0 0 0 0 35 0 26 0 0 0 0 0 37 0 0 0 0 0 0 0 25 0 0 0 
		35 0 0 0 34 0 0 0 0 0 0 0 0 0 0 0 0 0 0 0 0 0 0 0 0 25 0 0 23 0 0 22 0 0 0 0 0 0 0 0 0 20 0 28 39 
		36 0 0 0 0 0 22 0 0 0 0 0 0 27 0 0 0 0 0 0 0 0 0 0 0 0 0 0 0 0 0 0 0 0 0 0 0 0 0 0 0 0 0 0 0 
		37 0 0 0 0 0 0 39 0 0 0 0 0 0 0 0 0 36 0 0 0 0 0 20 0 36 0 0 0 29 33 0 0 0 0 0 0 0 0 0 0 0 26 36 0 
		38 31 0 0 23 0 0 29 0 0 0 0 0 0 0 0 0 0 0 0 0 0 0 0 0 0 0 0 0 0 0 0 0 0 0 0 0 0 0 0 0 0 0 0 0 
		39 0 0 0 0 0 0 39 0 0 0 0 31 0 0 0 0 0 0 0 0 25 0 0 0 0 0 0 0 0 39 0 0 0 0 0 0 0 0 0 0 0 0 0 0 
		40 0 0 0 39 40 0 27 0 0 0 0 29 28 34 25 0 0 0 0 0 25 0 0 28 0 0 35 0 0 0 0 0 0 0 25 20 0 0 0 0 0 0 28 0 
		41 0 0 0 0 0 0 0 0 0 0 0 0 0 0 0 0 0 0 0 0 0 0 0 0 0 0 0 0 0 29 0 0 0 0 0 0 0 26 0 0 0 0 0 29 
		42 0 0 0 0 0 0 0 0 0 0 27 0 0 28 0 0 0 21 0 0 0 25 34 0 0 0 0 34 0 0 0 37 0 0 0 28 0 36 0 0 28 0 0 0 
		43 0 0 0 0 0 0 0 0 0 0 0 0 0 0 0 0 0 0 0 0 27 29 0 0 0 30 0 0 0 0 0 30 0 0 0 39 0 0 0 0 0 29 0 0 
;
